%%% Exp_DoseResponse conditions %%%
%% Produces 1 plate.

%% Plate dimentions: (this is a 96-well plate)
num_rows = 8; %% height
num_cols = 12; %% width


%horizontal_cell_lines = 1;
%vertical_cell_lines = 1;



%concentrations_on_different_rows = true;
%concentrations_on_different_columns = true;

% (Restriction: replicates_on_different_plates /\ replicates_on_same_plate == false)
%replicates_on_different_plates = true;
%replicates_on_same_plate = false;

%size_empty_edge = 1;





%%% Controls %%%
control_replicates = [20];
control_concentrations = [1 | i in 1..num_controls];
control_names = ["neg"];

control_concentration_names =  array2d(1..num_controls, 1..1,["cont\(floor(i/1))-conc\((i mod 1) + 1)" | i in 1..num_controls*1]);  
  
